
        $ From http://www.csplib.org/Problems/prob009/data/helmut.pdf
        $ Problem number 51
        $ Sequence length : 25
        language ESSENCE' 1.0
        letting sizemaster be 215
        letting sizes be sequence(1,4,6,7,11,15,24,26,27,33,37,39,40,41,42,43,45,47,51,55,60,62,63,69,83)
        